; Benchmark for LTL-sketching problem
(set-logic QF_UF)
(set-info :status unknown)
(declare-fun z_0_0_0 () Bool)
(declare-fun z_0_1_0 () Bool)
(declare-fun z_0_2_0 () Bool)
(declare-fun z_0_3_0 () Bool)
(declare-fun z_0_4_0 () Bool)
(declare-fun z_0_5_0 () Bool)
(declare-fun z_0_6_0 () Bool)
(declare-fun z_0_7_0 () Bool)
(declare-fun z_0_8_0 () Bool)
(declare-fun z_0_9_0 () Bool)
(declare-fun z_0_10_0 () Bool)
(declare-fun z_0_11_0 () Bool)
(declare-fun z_0_12_0 () Bool)
(declare-fun z_0_13_0 () Bool)
(declare-fun z_0_14_0 () Bool)
(declare-fun z_0_15_0 () Bool)
(declare-fun z_0_16_0 () Bool)
(declare-fun z_0_17_0 () Bool)
(declare-fun z_0_18_0 () Bool)
(declare-fun z_0_19_0 () Bool)
(declare-fun z_2_0_0 () Bool)
(declare-fun z_2_1_0 () Bool)
(declare-fun z_2_2_0 () Bool)
(declare-fun z_2_3_0 () Bool)
(declare-fun z_2_4_0 () Bool)
(declare-fun z_2_5_0 () Bool)
(declare-fun z_2_6_0 () Bool)
(declare-fun z_2_7_0 () Bool)
(declare-fun z_2_8_0 () Bool)
(declare-fun z_2_9_0 () Bool)
(declare-fun z_2_10_2 () Bool)
(declare-fun z_2_10_1 () Bool)
(declare-fun z_2_10_0 () Bool)
(declare-fun z_0_10_1 () Bool)
(declare-fun z_0_10_2 () Bool)
(declare-fun z_2_11_2 () Bool)
(declare-fun z_2_11_1 () Bool)
(declare-fun z_2_11_0 () Bool)
(declare-fun z_0_11_1 () Bool)
(declare-fun z_0_11_2 () Bool)
(declare-fun z_2_12_3 () Bool)
(declare-fun z_2_12_2 () Bool)
(declare-fun z_2_12_1 () Bool)
(declare-fun z_2_12_0 () Bool)
(declare-fun z_0_12_1 () Bool)
(declare-fun z_0_12_2 () Bool)
(declare-fun z_0_12_3 () Bool)
(declare-fun z_2_13_3 () Bool)
(declare-fun z_2_13_2 () Bool)
(declare-fun z_2_13_1 () Bool)
(declare-fun z_2_13_0 () Bool)
(declare-fun z_0_13_1 () Bool)
(declare-fun z_0_13_2 () Bool)
(declare-fun z_0_13_3 () Bool)
(declare-fun z_2_14_7 () Bool)
(declare-fun z_2_14_6 () Bool)
(declare-fun z_2_14_5 () Bool)
(declare-fun z_2_14_4 () Bool)
(declare-fun z_2_14_3 () Bool)
(declare-fun z_2_14_2 () Bool)
(declare-fun z_2_14_1 () Bool)
(declare-fun z_2_14_0 () Bool)
(declare-fun z_0_14_1 () Bool)
(declare-fun z_0_14_2 () Bool)
(declare-fun z_0_14_3 () Bool)
(declare-fun z_0_14_4 () Bool)
(declare-fun z_0_14_5 () Bool)
(declare-fun z_0_14_6 () Bool)
(declare-fun z_0_14_7 () Bool)
(declare-fun z_2_15_5 () Bool)
(declare-fun z_2_15_4 () Bool)
(declare-fun z_2_15_3 () Bool)
(declare-fun z_2_15_2 () Bool)
(declare-fun z_2_15_1 () Bool)
(declare-fun z_2_15_0 () Bool)
(declare-fun z_0_15_1 () Bool)
(declare-fun z_0_15_2 () Bool)
(declare-fun z_0_15_3 () Bool)
(declare-fun z_0_15_4 () Bool)
(declare-fun z_0_15_5 () Bool)
(declare-fun z_2_16_6 () Bool)
(declare-fun z_2_16_5 () Bool)
(declare-fun z_2_16_4 () Bool)
(declare-fun z_2_16_3 () Bool)
(declare-fun z_2_16_2 () Bool)
(declare-fun z_2_16_1 () Bool)
(declare-fun z_2_16_0 () Bool)
(declare-fun z_0_16_1 () Bool)
(declare-fun z_0_16_2 () Bool)
(declare-fun z_0_16_3 () Bool)
(declare-fun z_0_16_4 () Bool)
(declare-fun z_0_16_5 () Bool)
(declare-fun z_0_16_6 () Bool)
(declare-fun z_2_17_1 () Bool)
(declare-fun z_2_17_0 () Bool)
(declare-fun z_0_17_1 () Bool)
(declare-fun z_2_18_6 () Bool)
(declare-fun z_2_18_5 () Bool)
(declare-fun z_2_18_4 () Bool)
(declare-fun z_2_18_3 () Bool)
(declare-fun z_2_18_2 () Bool)
(declare-fun z_2_18_1 () Bool)
(declare-fun z_2_18_0 () Bool)
(declare-fun z_0_18_1 () Bool)
(declare-fun z_0_18_2 () Bool)
(declare-fun z_0_18_3 () Bool)
(declare-fun z_0_18_4 () Bool)
(declare-fun z_0_18_5 () Bool)
(declare-fun z_0_18_6 () Bool)
(declare-fun z_2_19_3 () Bool)
(declare-fun z_2_19_2 () Bool)
(declare-fun z_2_19_1 () Bool)
(declare-fun z_2_19_0 () Bool)
(declare-fun z_0_19_1 () Bool)
(declare-fun z_0_19_2 () Bool)
(declare-fun z_0_19_3 () Bool)
(declare-fun x_2_p () Bool)
(declare-fun x_2_-> () Bool)
(declare-fun x_2_U () Bool)
(declare-fun x_2_v () Bool)
(declare-fun x_2_& () Bool)
(declare-fun x_2_X () Bool)
(declare-fun x_2_! () Bool)
(declare-fun x_2_F () Bool)
(declare-fun x_2_G () Bool)
(assert
 (= z_0_0_0 true))
(assert
 (= z_0_1_0 true))
(assert
 (= z_0_2_0 true))
(assert
 (= z_0_3_0 true))
(assert
 (= z_0_4_0 true))
(assert
 (= z_0_5_0 true))
(assert
 (= z_0_6_0 true))
(assert
 (= z_0_7_0 true))
(assert
 (= z_0_8_0 true))
(assert
 (= z_0_9_0 true))
(assert
 (= z_0_10_0 false))
(assert
 (= z_0_11_0 false))
(assert
 (= z_0_12_0 false))
(assert
 (= z_0_13_0 false))
(assert
 (= z_0_14_0 false))
(assert
 (= z_0_15_0 false))
(assert
 (= z_0_16_0 false))
(assert
 (= z_0_17_0 false))
(assert
 (= z_0_18_0 false))
(assert
 (= z_0_19_0 false))
(assert
 (= z_0_0_0 (and z_2_0_0)))
(assert
 (= z_0_1_0 (and z_2_1_0)))
(assert
 (= z_0_2_0 (and z_2_2_0)))
(assert
 (= z_0_3_0 (and z_2_3_0)))
(assert
 (= z_0_4_0 (and z_2_4_0)))
(assert
 (= z_0_5_0 (and z_2_5_0)))
(assert
 (= z_0_6_0 (and z_2_6_0)))
(assert
 (= z_0_7_0 (and z_2_7_0)))
(assert
 (= z_0_8_0 (and z_2_8_0)))
(assert
 (= z_0_9_0 (and z_2_9_0)))
(assert
 (= z_0_10_0 (and z_2_10_0 z_2_10_1 z_2_10_2)))
(assert
 (= z_0_10_1 (and z_2_10_1 z_2_10_2)))
(assert
 (= z_0_10_2 (and z_2_10_2)))
(assert
 (let (($x1358 (and z_2_11_0 z_2_11_1 z_2_11_2)))
 (= z_0_11_0 $x1358)))
(assert
 (let (($x1358 (and z_2_11_0 z_2_11_1 z_2_11_2)))
 (= z_0_11_1 $x1358)))
(assert
 (let (($x1358 (and z_2_11_0 z_2_11_1 z_2_11_2)))
 (= z_0_11_2 $x1358)))
(assert
 (= z_0_12_0 (and z_2_12_0 z_2_12_1 z_2_12_2 z_2_12_3)))
(assert
 (let (($x1368 (and z_2_12_1 z_2_12_2 z_2_12_3)))
 (= z_0_12_1 $x1368)))
(assert
 (let (($x1368 (and z_2_12_1 z_2_12_2 z_2_12_3)))
 (= z_0_12_2 $x1368)))
(assert
 (let (($x1368 (and z_2_12_1 z_2_12_2 z_2_12_3)))
 (= z_0_12_3 $x1368)))
(assert
 (= z_0_13_0 (and z_2_13_0 z_2_13_1 z_2_13_2 z_2_13_3)))
(assert
 (= z_0_13_1 (and z_2_13_1 z_2_13_2 z_2_13_3)))
(assert
 (let (($x1380 (and z_2_13_2 z_2_13_3)))
 (= z_0_13_2 $x1380)))
(assert
 (let (($x1380 (and z_2_13_2 z_2_13_3)))
 (= z_0_13_3 $x1380)))
(assert
 (let (($x1391 (and z_2_14_0 z_2_14_1 z_2_14_2 z_2_14_3 z_2_14_4 z_2_14_5 z_2_14_6 z_2_14_7)))
 (= z_0_14_0 $x1391)))
(assert
 (let (($x1393 (and z_2_14_1 z_2_14_2 z_2_14_3 z_2_14_4 z_2_14_5 z_2_14_6 z_2_14_7)))
 (= z_0_14_1 $x1393)))
(assert
 (= z_0_14_2 (and z_2_14_2 z_2_14_3 z_2_14_4 z_2_14_5 z_2_14_6 z_2_14_7)))
(assert
 (= z_0_14_3 (and z_2_14_3 z_2_14_4 z_2_14_5 z_2_14_6 z_2_14_7)))
(assert
 (let (($x1399 (and z_2_14_4 z_2_14_5 z_2_14_6 z_2_14_7)))
 (= z_0_14_4 $x1399)))
(assert
 (let (($x1399 (and z_2_14_4 z_2_14_5 z_2_14_6 z_2_14_7)))
 (= z_0_14_5 $x1399)))
(assert
 (let (($x1399 (and z_2_14_4 z_2_14_5 z_2_14_6 z_2_14_7)))
 (= z_0_14_6 $x1399)))
(assert
 (let (($x1399 (and z_2_14_4 z_2_14_5 z_2_14_6 z_2_14_7)))
 (= z_0_14_7 $x1399)))
(assert
 (= z_0_15_0 (and z_2_15_0 z_2_15_1 z_2_15_2 z_2_15_3 z_2_15_4 z_2_15_5)))
(assert
 (= z_0_15_1 (and z_2_15_1 z_2_15_2 z_2_15_3 z_2_15_4 z_2_15_5)))
(assert
 (let (($x1414 (and z_2_15_2 z_2_15_3 z_2_15_4 z_2_15_5)))
 (= z_0_15_2 $x1414)))
(assert
 (let (($x1414 (and z_2_15_2 z_2_15_3 z_2_15_4 z_2_15_5)))
 (= z_0_15_3 $x1414)))
(assert
 (let (($x1414 (and z_2_15_2 z_2_15_3 z_2_15_4 z_2_15_5)))
 (= z_0_15_4 $x1414)))
(assert
 (let (($x1414 (and z_2_15_2 z_2_15_3 z_2_15_4 z_2_15_5)))
 (= z_0_15_5 $x1414)))
(assert
 (let (($x1426 (and z_2_16_0 z_2_16_1 z_2_16_2 z_2_16_3 z_2_16_4 z_2_16_5 z_2_16_6)))
 (= z_0_16_0 $x1426)))
(assert
 (= z_0_16_1 (and z_2_16_1 z_2_16_2 z_2_16_3 z_2_16_4 z_2_16_5 z_2_16_6)))
(assert
 (= z_0_16_2 (and z_2_16_2 z_2_16_3 z_2_16_4 z_2_16_5 z_2_16_6)))
(assert
 (let (($x1432 (and z_2_16_3 z_2_16_4 z_2_16_5 z_2_16_6)))
 (= z_0_16_3 $x1432)))
(assert
 (let (($x1432 (and z_2_16_3 z_2_16_4 z_2_16_5 z_2_16_6)))
 (= z_0_16_4 $x1432)))
(assert
 (let (($x1432 (and z_2_16_3 z_2_16_4 z_2_16_5 z_2_16_6)))
 (= z_0_16_5 $x1432)))
(assert
 (let (($x1432 (and z_2_16_3 z_2_16_4 z_2_16_5 z_2_16_6)))
 (= z_0_16_6 $x1432)))
(assert
 (= z_0_17_0 (and z_2_17_0 z_2_17_1)))
(assert
 (= z_0_17_1 (and z_2_17_1)))
(assert
 (let (($x1451 (and z_2_18_0 z_2_18_1 z_2_18_2 z_2_18_3 z_2_18_4 z_2_18_5 z_2_18_6)))
 (= z_0_18_0 $x1451)))
(assert
 (= z_0_18_1 (and z_2_18_1 z_2_18_2 z_2_18_3 z_2_18_4 z_2_18_5 z_2_18_6)))
(assert
 (= z_0_18_2 (and z_2_18_2 z_2_18_3 z_2_18_4 z_2_18_5 z_2_18_6)))
(assert
 (let (($x1457 (and z_2_18_3 z_2_18_4 z_2_18_5 z_2_18_6)))
 (= z_0_18_3 $x1457)))
(assert
 (let (($x1457 (and z_2_18_3 z_2_18_4 z_2_18_5 z_2_18_6)))
 (= z_0_18_4 $x1457)))
(assert
 (let (($x1457 (and z_2_18_3 z_2_18_4 z_2_18_5 z_2_18_6)))
 (= z_0_18_5 $x1457)))
(assert
 (let (($x1457 (and z_2_18_3 z_2_18_4 z_2_18_5 z_2_18_6)))
 (= z_0_18_6 $x1457)))
(assert
 (= z_0_19_0 (and z_2_19_0 z_2_19_1 z_2_19_2 z_2_19_3)))
(assert
 (= z_0_19_1 (and z_2_19_1 z_2_19_2 z_2_19_3)))
(assert
 (= z_0_19_2 (and z_2_19_2 z_2_19_3)))
(assert
 (= z_0_19_3 (and z_2_19_3)))
(assert
 (and true true))
(assert
 (=> x_2_p z_2_0_0))
(assert
 (=> x_2_p z_2_1_0))
(assert
 (=> x_2_p z_2_2_0))
(assert
 (=> x_2_p z_2_3_0))
(assert
 (=> x_2_p z_2_4_0))
(assert
 (=> x_2_p z_2_5_0))
(assert
 (=> x_2_p z_2_6_0))
(assert
 (=> x_2_p z_2_7_0))
(assert
 (=> x_2_p z_2_8_0))
(assert
 (=> x_2_p z_2_9_0))
(assert
 (=> x_2_p z_2_10_0))
(assert
 (let (($x1518 (not z_2_10_1)))
 (=> x_2_p $x1518)))
(assert
 (=> x_2_p z_2_10_2))
(assert
 (=> x_2_p z_2_11_0))
(assert
 (=> x_2_p z_2_11_1))
(assert
 (let (($x1527 (not z_2_11_2)))
 (=> x_2_p $x1527)))
(assert
 (let (($x1530 (not z_2_12_0)))
 (=> x_2_p $x1530)))
(assert
 (let (($x1533 (not z_2_12_1)))
 (=> x_2_p $x1533)))
(assert
 (=> x_2_p z_2_12_2))
(assert
 (=> x_2_p z_2_12_3))
(assert
 (let (($x1540 (not z_2_13_0)))
 (=> x_2_p $x1540)))
(assert
 (let (($x1543 (not z_2_13_1)))
 (=> x_2_p $x1543)))
(assert
 (let (($x1546 (not z_2_13_2)))
 (=> x_2_p $x1546)))
(assert
 (=> x_2_p z_2_13_3))
(assert
 (let (($x1551 (not z_2_14_0)))
 (=> x_2_p $x1551)))
(assert
 (let (($x1554 (not z_2_14_1)))
 (=> x_2_p $x1554)))
(assert
 (let (($x1557 (not z_2_14_2)))
 (=> x_2_p $x1557)))
(assert
 (let (($x1560 (not z_2_14_3)))
 (=> x_2_p $x1560)))
(assert
 (let (($x1563 (not z_2_14_4)))
 (=> x_2_p $x1563)))
(assert
 (let (($x1566 (not z_2_14_5)))
 (=> x_2_p $x1566)))
(assert
 (let (($x1569 (not z_2_14_6)))
 (=> x_2_p $x1569)))
(assert
 (=> x_2_p z_2_14_7))
(assert
 (let (($x1574 (not z_2_15_0)))
 (=> x_2_p $x1574)))
(assert
 (=> x_2_p z_2_15_1))
(assert
 (let (($x1579 (not z_2_15_2)))
 (=> x_2_p $x1579)))
(assert
 (let (($x1582 (not z_2_15_3)))
 (=> x_2_p $x1582)))
(assert
 (=> x_2_p z_2_15_4))
(assert
 (let (($x1587 (not z_2_15_5)))
 (=> x_2_p $x1587)))
(assert
 (let (($x1590 (not z_2_16_0)))
 (=> x_2_p $x1590)))
(assert
 (=> x_2_p z_2_16_1))
(assert
 (let (($x1595 (not z_2_16_2)))
 (=> x_2_p $x1595)))
(assert
 (let (($x1598 (not z_2_16_3)))
 (=> x_2_p $x1598)))
(assert
 (let (($x1601 (not z_2_16_4)))
 (=> x_2_p $x1601)))
(assert
 (=> x_2_p z_2_16_5))
(assert
 (=> x_2_p z_2_16_6))
(assert
 (=> x_2_p z_2_17_0))
(assert
 (let (($x1610 (not z_2_17_1)))
 (=> x_2_p $x1610)))
(assert
 (=> x_2_p z_2_18_0))
(assert
 (let (($x1615 (not z_2_18_1)))
 (=> x_2_p $x1615)))
(assert
 (=> x_2_p z_2_18_2))
(assert
 (let (($x1620 (not z_2_18_3)))
 (=> x_2_p $x1620)))
(assert
 (let (($x1623 (not z_2_18_4)))
 (=> x_2_p $x1623)))
(assert
 (=> x_2_p z_2_18_5))
(assert
 (let (($x1628 (not z_2_18_6)))
 (=> x_2_p $x1628)))
(assert
 (=> x_2_p z_2_19_0))
(assert
 (let (($x1633 (not z_2_19_1)))
 (=> x_2_p $x1633)))
(assert
 (=> x_2_p z_2_19_2))
(assert
 (let (($x1638 (not z_2_19_3)))
 (=> x_2_p $x1638)))
(assert
 (or x_2_p))
(assert
 (let (($x1493 (not x_2_->)))
 (let (($x1491 (not x_2_U)))
 (let (($x1489 (not x_2_v)))
 (let (($x1487 (not x_2_&)))
 (let (($x1485 (not x_2_X)))
 (let (($x1483 (not x_2_!)))
 (let (($x1481 (not x_2_F)))
 (let (($x1479 (not x_2_G)))
 (and $x1479 $x1481 $x1483 $x1485 $x1487 $x1489 $x1491 $x1493))))))))))
(check-sat)

